1 0 0 0 0 1 0 0 1 0 0 0 
0 28 37 18 34 22 11 34 28 28 40 31 
28 0 31 8 21 29 13 12 38 36 24 22 
37 31 0 9 30 9 31 4 9 8 15 20 
18 8 9 0 14 40 16 23 39 33 24 26 
34 21 30 14 0 24 36 7 29 6 20 9 
22 29 9 40 24 0 7 29 28 14 9 39 
11 13 31 16 36 7 0 24 6 20 5 23 
34 12 4 23 7 29 24 0 26 38 18 39 
28 38 9 39 29 28 6 26 0 28 34 38 
28 36 8 33 6 14 20 38 28 0 9 7 
40 24 15 24 20 9 5 18 34 9 0 13 
31 22 20 26 9 39 23 39 38 7 13 0 
3 3
1P 4B 2B 7B 9P 3B 8B 5B 6P 11B 10B 12B = 145